data;


param FN:= 0;
param D:= 100;
param U_Original:=
         1         1       -2.261224e-01
         2         1       -1.554036e-01
         3         1        2.146836e-01
         4         1       -1.428225e+00
         5         1       -1.711823e+00
         6         1       -7.206103e-01
         7         1        3.754537e-01
         8         1       -1.132483e+00
         9         1        1.697083e-01
        10         1       -6.704339e-01
        11         1        4.842657e-01
        12         1        1.240374e+00
        13         1        8.224086e-01
        14         1       -1.957881e-01
        15         1        7.425189e-01
        16         1        7.598804e-01
        17         1       -3.463944e-01
        18         1        1.515405e+00
        19         1        9.247701e-01
        20         1        3.318749e-01
        21         1       -1.336341e+00
        22         1       -1.209100e-01
        23         1       -5.351782e-01
        24         1        9.626670e-01
        25         1        4.443635e-01
        26         1       -1.269482e+00
        27         1        1.189385e+00
        28         1        7.405175e-01
        29         1        1.108915e+00
        30         1        6.301224e-02
        31         1        1.581526e+00
        32         1       -6.167093e-01
        33         1       -3.081497e-01
        34         1        9.467241e-01
        35         1        8.981662e-01
        36         1       -1.056071e+00
        37         1       -8.301136e-02
        38         1        1.353791e+00
        39         1       -9.340839e-01
        40         1       -8.306335e-01
        41         1       -1.452108e+00
        42         1        1.253333e+00
        43         1       -9.527357e-01
        44         1       -4.354185e-01
        45         1       -6.391721e-01
        46         1        4.336089e-01
        47         1       -2.155517e+00
        48         1        6.937329e-01
        49         1        1.243177e+00
        50         1       -1.610679e+00
        51         1        7.259507e-01
        52         1       -5.502172e-02
        53         1        1.830209e+00
        54         1        8.844962e-01
        55         1        1.028217e+00
        56         1       -3.067437e+00
        57         1        9.882871e-01
        58         1        7.566120e-01
        59         1        5.374477e-02
        60         1       -5.069482e-01
        61         1        1.003735e+00
        62         1        5.915971e-01
        63         1        1.639082e+00
        64         1       -8.355154e-01
        65         1        6.087354e-03
        66         1        5.212183e-01
        67         1       -1.621672e+00
        68         1       -1.001562e+00
        69         1        1.899120e-01
        70         1       -1.649141e-01
        71         1        2.428522e+00
        72         1       -1.019961e-01
        73         1        3.810444e-01
        74         1        9.640502e-01
        75         1       -1.477205e-01
        76         1        9.596030e-01
        77         1        1.817765e-01
        78         1        8.400569e-01
        79         1       -1.643800e+00
        80         1       -6.364802e-01
        81         1        4.059085e-02
        82         1       -3.422317e-02
        83         1       -7.703451e-01
        84         1        2.773624e+00
        85         1       -3.910552e-01
        86         1        1.852201e+00
        87         1       -4.086632e-01
        88         1        3.587009e-01
        89         1        1.283278e+00
        90         1       -3.148155e-01
        91         1        9.203644e-01
        92         1        8.883798e-01
        93         1       -3.258500e-01
        94         1       -1.292028e+00
        95         1        4.002229e-01
        96         1       -2.126381e-01
        97         1       -1.097236e+00
        98         1       -5.820799e-01
        99         1        2.442308e-01
       100         1       -7.706930e-01
         1         2        9.221438e-01
         2         2        2.428710e+00
         3         2       -8.415815e-01
         4         2        4.600180e-01
         5         2       -1.159635e+00
         6         2        2.295729e+00
         7         2       -1.093624e-01
         8         2       -5.708754e-01
         9         2        6.464564e-02
        10         2       -1.039676e-01
        11         2       -1.007612e+00
        12         2        6.174088e-01
        13         2        1.559518e+00
        14         2        3.947733e-01
        15         2       -8.167180e-01
        16         2        2.509842e+00
        17         2        9.096520e-02
        18         2       -1.379287e+00
        19         2        4.503814e-01
        20         2        3.830439e-01
        21         2       -3.765997e-01
        22         2        3.483086e-01
        23         2       -2.701084e-02
        24         2       -1.306352e+00
        25         2       -7.754325e-01
        26         2        1.804391e-01
        27         2       -1.484150e+00
        28         2       -1.573388e+00
        29         2       -2.979211e-01
        30         2        2.972062e+00
        31         2       -3.204266e-01
        32         2       -2.070245e-01
        33         2       -2.668396e+00
        34         2       -7.014324e-02
        35         2        1.331865e-01
        36         2        1.104883e-01
        37         2        1.188200e+00
        38         2        6.843025e-01
        39         2        5.398940e-01
        40         2        4.778972e-01
        41         2        4.979094e-01
        42         2        8.586343e-01
        43         2        1.120589e+00
        44         2       -1.921290e-01
        45         2       -3.953475e-01
        46         2       -7.701849e-01
        47         2        7.313119e-01
        48         2       -3.673263e-01
        49         2       -3.639204e-01
        50         2        9.147210e-01
        51         2        6.030062e-01
        52         2        1.667378e+00
        53         2       -7.265292e-01
        54         2       -3.934256e-01
        55         2       -2.534557e-01
        56         2        4.657084e-01
        57         2        7.257973e-01
        58         2        1.878822e-01
        59         2        1.899314e+00
        60         2        4.790791e-01
        61         2       -1.134310e-01
        62         2       -1.168262e-01
        63         2        8.820988e-01
        64         2        6.833420e-01
        65         2       -1.786255e+00
        66         2        1.370632e+00
        67         2       -9.884484e-02
        68         2        7.477621e-01
        69         2       -2.674725e+00
        70         2       -1.051023e+00
        71         2       -1.877377e-01
        72         2       -1.318965e+00
        73         2        9.156550e-02
        74         2        1.006901e+00
        75         2       -6.268998e-01
        76         2       -1.451276e+00
        77         2        4.940606e-01
        78         2       -4.768154e-01
        79         2        4.979377e-01
        80         2        9.463845e-01
        81         2        2.641324e+00
        82         2       -5.248814e-01
        83         2        5.541028e-01
        84         2       -2.207340e-01
        85         2       -5.814916e-01
        86         2       -4.130976e-01
        87         2       -1.365745e+00
        88         2       -1.149128e+00
        89         2        8.639446e-01
        90         2       -1.437496e+00
        91         2       -2.636806e-01
        92         2       -1.970234e-01
        93         2       -9.799705e-01
        94         2        7.631179e-01
        95         2       -8.397308e-01
        96         2       -1.032929e+00
        97         2        3.401872e-01
        98         2        1.660476e+00
        99         2       -1.899150e-01
       100         2        8.790470e-02
         1         3       -1.225696e+00
         2         3       -2.474723e-01
         3         3        3.249742e-01
         4         3       -4.460384e-01
         5         3        2.611062e-01
         6         3       -1.598800e+00
         7         3        5.540936e-01
         8         3       -4.897350e-01
         9         3       -1.856716e+00
        10         3        7.290253e-01
        11         3        9.262398e-02
        12         3       -1.466243e-01
        13         3       -6.105178e-01
        14         3        4.221539e-01
        15         3        1.049115e+00
        16         3       -2.716786e-01
        17         3        9.378826e-01
        18         3        5.919210e-01
        19         3       -6.155232e-02
        20         3        3.076954e+00
        21         3        9.517885e-01
        22         3        7.016293e-01
        23         3       -1.456655e+00
        24         3        3.618666e-01
        25         3       -1.323331e+00
        26         3       -6.581761e-01
        27         3        2.249545e+00
        28         3        1.636239e-01
        29         3       -1.317514e-01
        30         3        1.745054e+00
        31         3        1.272698e-01
        32         3       -9.369456e-01
        33         3       -3.053209e-01
        34         3       -9.562127e-01
        35         3        6.896309e-01
        36         3        6.523991e-01
        37         3        5.558729e-01
        38         3        1.054354e+00
        39         3       -4.084218e-01
        40         3        3.979805e-01
        41         3       -1.110529e+00
        42         3        2.459351e+00
        43         3       -1.487838e+00
        44         3       -9.245871e-01
        45         3        1.204337e-01
        46         3        4.880873e-01
        47         3        1.456778e+00
        48         3       -6.500292e-02
        49         3       -9.740737e-03
        50         3       -2.371103e+00
        51         3        3.932422e-01
        52         3       -8.411837e-01
        53         3       -2.916766e-01
        54         3       -2.667094e-01
        55         3       -1.720052e+00
        56         3       -8.556734e-01
        57         3       -2.857200e-01
        58         3        1.261913e+00
        59         3       -7.651435e-01
        60         3       -6.960943e-01
        61         3        6.802033e-01
        62         3        5.482543e-01
        63         3        1.182331e+00
        64         3        2.698220e-01
        65         3       -1.203140e+00
        66         3        3.147643e-01
        67         3        1.524614e-01
        68         3        1.465765e+00
        69         3        2.972365e-01
        70         3        4.322339e-01
        71         3       -1.486634e+00
        72         3        2.041964e+00
        73         3        2.180368e-01
        74         3        9.047496e-01
        75         3        1.115168e+00
        76         3        7.271846e-01
        77         3       -1.093174e+00
        78         3        6.883071e-01
        79         3        9.037825e-01
        80         3        1.245115e+00
        81         3       -4.949629e-01
        82         3        8.478411e-01
        83         3        9.852398e-01
        84         3        5.857058e-01
        85         3       -2.770134e-01
        86         3       -1.625038e+00
        87         3        1.971238e-01
        88         3       -4.049640e-01
        89         3       -3.485017e-01
        90         3        6.560647e-01
        91         3       -1.257714e+00
        92         3       -2.213094e-01
        93         3        3.258128e-01
        94         3        7.886118e-01
        95         3       -1.284343e+00
        96         3        5.036093e-01
        97         3        4.377335e-01
        98         3       -7.796556e-02
        99         3       -1.106486e+00
       100         3       -6.207976e-02
         1         4       -8.498512e-02
         2         4       -4.922321e-01
         3         4       -1.070316e+00
         4         4       -8.484783e-01
         5         4        9.038467e-01
         6         4        5.433036e-01
         7         4       -3.481187e-01
         8         4       -1.108781e+00
         9         4        1.278700e-01
        10         4        7.900666e-01
        11         4        7.689125e-01
        12         4       -5.830641e-01
        13         4       -5.150986e-01
        14         4        1.307696e+00
        15         4        3.787347e-01
        16         4       -4.026084e-01
        17         4        1.003839e+00
        18         4       -1.025495e+00
        19         4        1.219859e-01
        20         4        8.069862e-02
        21         4        1.617418e+00
        22         4        2.089280e-02
        23         4        6.695219e-01
        24         4        6.513577e-01
        25         4       -4.042585e-01
        26         4        2.080612e-01
        27         4       -7.817606e-01
        28         4       -8.710179e-02
        29         4        2.369174e+00
        30         4       -5.413087e-01
        31         4       -7.946573e-01
        32         4        1.088725e-01
        33         4       -7.319732e-01
        34         4        1.883503e-01
        35         4        2.428892e+00
        36         4       -1.477694e-01
        37         4        9.086032e-01
        38         4        2.513723e+00
        39         4       -2.492786e-01
        40         4       -1.137558e+00
        41         4       -4.455787e-01
        42         4        9.795447e-01
        43         4       -1.089783e+00
        44         4        9.254353e-01
        45         4        5.275173e-01
        46         4        2.840023e-01
        47         4       -1.009869e+00
        48         4        3.224428e-01
        49         4       -5.487508e-01
        50         4       -1.003601e+00
        51         4       -3.006403e-01
        52         4        1.407036e-01
        53         4        5.114613e-02
        54         4        1.140518e+00
        55         4        2.421872e-01
        56         4        2.916155e-01
        57         4       -7.905839e-01
        58         4        1.482832e+00
        59         4        5.395111e-01
        60         4       -2.788040e-02
        61         4       -5.224058e-01
        62         4        1.865323e+00
        63         4       -7.434034e-01
        64         4        1.106759e+00
        65         4       -5.429641e-02
        66         4        1.418429e+00
        67         4        2.083071e-02
        68         4       -6.457365e-01
        69         4        1.815732e+00
        70         4       -1.233594e+00
        71         4       -1.408495e+00
        72         4        5.211743e-01
        73         4       -6.455580e-01
        74         4        2.362196e+00
        75         4       -3.392199e-02
        76         4       -1.508731e+00
        77         4       -5.629191e-01
        78         4       -1.227485e+00
        79         4       -5.191252e-01
        80         4       -2.603692e-01
        81         4       -1.057002e+00
        82         4       -7.509453e-01
        83         4        3.688703e-01
        84         4       -7.003682e-01
        85         4       -1.150680e+00
        86         4       -5.664125e-01
        87         4       -1.583980e+00
        88         4        2.035718e+00
        89         4       -1.099783e+00
        90         4        3.011491e-01
        91         4        1.935388e+00
        92         4        1.816629e+00
        93         4       -2.883604e-01
        94         4       -8.894775e-01
        95         4        1.738017e+00
        96         4        1.116801e+00
        97         4        1.131269e+00
        98         4        6.007201e-01
        99         4       -3.926567e-01
       100         4        4.263423e-01
         1         5        6.154282e-01
         2         5        2.382482e-01
         3         5       -1.934485e-03
         4         5        6.073880e-01
         5         5        1.501771e+00
         6         5       -1.589872e+00
         7         5        1.788812e+00
         8         5       -2.064320e+00
         9         5       -1.199006e+00
        10         5       -2.077957e-01
        11         5        3.490893e-01
        12         5       -4.803935e-01
        13         5        6.947845e-01
        14         5       -8.256829e-02
        15         5        6.166717e-02
        16         5        1.020685e+00
        17         5        3.315539e-02
        18         5       -1.858457e+00
        19         5        1.981381e+00
        20         5       -1.900122e+00
        21         5        9.468334e-01
        22         5        1.049653e+00
        23         5       -6.356225e-01
        24         5       -1.407610e+00
        25         5       -9.524680e-01
        26         5        1.085418e+00
        27         5        6.568853e-01
        28         5       -7.613216e-01
        29         5       -1.574507e+00
        30         5        3.926471e-01
        31         5       -1.096590e+00
        32         5       -1.455105e-01
        33         5        3.464185e-01
        34         5       -2.429137e-01
        35         5        2.304235e-01
        36         5       -8.074130e-01
        37         5        1.565151e+00
        38         5       -5.494924e-01
        39         5       -1.094950e+00
        40         5        2.216585e-01
        41         5       -1.091154e+00
        42         5       -1.085038e-01
        43         5       -4.931485e-01
        44         5        3.297714e-01
        45         5       -6.548912e-01
        46         5        7.319959e-01
        47         5       -7.674945e-01
        48         5        1.654224e+00
        49         5        4.566813e-02
        50         5        4.503645e-01
        51         5       -1.530013e+00
        52         5        3.376145e-01
        53         5        6.248997e-01
        54         5        3.254064e-01
        55         5       -1.123070e+00
        56         5        1.718951e+00
        57         5       -1.629306e-02
        58         5       -3.095196e-01
        59         5        8.046133e-01
        60         5        8.461056e-01
        61         5       -2.432252e+00
        62         5        6.797145e-01
        63         5        9.250308e-01
        64         5       -1.263000e+00
        65         5        4.269459e-01
        66         5       -1.394091e+00
        67         5        1.033800e+00
        68         5       -2.408103e-01
        69         5       -2.470031e-02
        70         5        1.026107e+00
        71         5       -1.383309e+00
        72         5       -6.917848e-01
        73         5       -6.034697e-02
        74         5        4.865829e-01
        75         5        1.401480e+00
        76         5        1.514424e+00
        77         5        1.970784e-01
        78         5        3.473133e-01
        79         5       -1.062295e+00
        80         5       -6.472291e-01
        81         5        9.016421e-01
        82         5       -9.199966e-01
        83         5       -1.167877e+00
        84         5       -4.153787e-01
        85         5       -1.479042e-01
        86         5        1.079109e+00
        87         5       -1.544108e+00
        88         5       -5.427366e-02
        89         5       -5.743070e-02
        90         5       -4.827150e-01
        91         5        1.640548e-01
        92         5        5.002995e-01
        93         5       -3.548678e-01
        94         5        2.080881e-02
        95         5        1.841135e+00
        96         5        4.072726e-01
        97         5        1.158644e-01
        98         5       -7.715482e-01
        99         5       -1.052868e+00
       100         5        7.276405e-01
;
param X_Original:=
    1        1.019824e+00
    2        1.212877e+00
    3       -2.795171e+00
    4       -1.042661e-01
    5        1.242097e+00
    6        1.377863e+00
    7       -1.182277e+00
    8        1.444596e+00
    9        8.185752e-01
   10       -4.537312e-02
   11        5.250815e-01
   12        3.767589e-02
   13        1.392447e+00
   14       -4.158602e-01
   15        6.902151e-01
   16        1.856131e-01
   17        1.570421e-01
   18        7.180438e-01
   19       -1.817883e+00
   20       -4.529232e+00
   21       -5.582631e+00
   22       -1.958741e-01
   23        6.652360e-01
   24       -1.026031e+00
   25        1.692090e+00
   26       -8.519616e-01
   27       -1.997362e-01
   28        8.022762e-01
   29        5.407492e-02
   30       -1.687547e+00
   31       -1.955060e+00
   32        2.651427e-01
   33       -1.391561e+00
   34       -5.169193e-01
   35       -8.440119e-01
   36        9.246596e-02
   37        6.218016e-01
   38       -1.001258e+00
   39       -3.303225e-02
   40        1.064903e+00
   41        1.124183e-01
   42        3.462131e-01
   43        3.197687e+00
   44       -9.155142e-01
   45       -6.746386e-01
   46        9.119566e-01
   47       -4.031314e+00
   48        1.235769e+00
   49        1.923293e+00
   50        1.867658e+00
   51        3.910831e-01
   52        1.014325e+00
   53       -2.348358e-01
   54        3.337581e-01
   55        6.220105e-01
   56       -5.395203e-01
   57        2.711657e+00
   58        3.622416e-02
   59       -6.596022e-01
   60       -7.298978e-01
   61       -1.334547e+00
   62       -7.671646e-01
   63       -2.221651e-02
   64       -3.134580e-01
   65        1.642490e-01
   66        1.627249e+00
   67        3.745985e-01
   68       -3.191359e+00
   69       -1.433775e+00
   70       -2.588478e-01
   71        2.272238e-01
   72        8.897943e-01
   73        1.257725e+00
   74       -1.226298e+00
   75        4.347011e-01
   76       -7.327243e-02
   77        2.877110e+00
   78        7.608470e-01
   79        6.784598e-01
   80       -1.364480e+00
   81        2.510443e-01
   82       -4.855607e-02
   83       -8.292722e-01
   84       -2.563401e-01
   85       -1.281672e+00
   86       -2.006389e-02
   87        1.006756e+00
   88        1.393544e-01
   89       -5.060338e-01
   90        6.164096e-01
   91       -1.362701e+00
   92       -1.236210e+00
   93       -1.476105e-01
   94        3.697232e-01
   95        1.531635e+00
   96        1.529535e+00
   97       -3.242020e+00
   98       -3.310907e-01
   99       -4.833393e-01
  100        7.299404e-01
;
param outliervec_original :=
    1    1
    2    0
    3    1
    4    1
    5    1
    6    1
    7    1
    8    0
    9    1
   10    1
   11    1
   12    1
   13    1
   14    1
   15    1
   16    1
   17    1
   18    1
   19    1
   20    0
   21    0
   22    1
   23    1
   24    1
   25    1
   26    1
   27    1
   28    1
   29    1
   30    1
   31    1
   32    1
   33    1
   34    1
   35    1
   36    1
   37    1
   38    1
   39    1
   40    1
   41    1
   42    1
   43    0
   44    1
   45    1
   46    1
   47    0
   48    1
   49    1
   50    1
   51    1
   52    1
   53    1
   54    1
   55    1
   56    1
   57    0
   58    1
   59    1
   60    1
   61    1
   62    1
   63    1
   64    1
   65    1
   66    1
   67    1
   68    0
   69    1
   70    1
   71    1
   72    1
   73    1
   74    1
   75    1
   76    1
   77    0
   78    1
   79    1
   80    1
   81    1
   82    1
   83    1
   84    1
   85    1
   86    1
   87    0
   88    1
   89    1
   90    1
   91    1
   92    1
   93    1
   94    1
   95    1
   96    1
   97    0
   98    0
   99    1
  100    1
;
param d:= 56;
param r:=5;
param p:=0.880000;
param M:=1000;
param U:=
         1         1       -2.261224e-01
         2         1       -1.554036e-01
         3         1       -1.428225e+00
         4         1       -7.206103e-01
         5         1        3.754537e-01
         6         1       -1.132483e+00
         7         1        4.842657e-01
         8         1        8.224086e-01
         9         1        7.598804e-01
        10         1        3.318749e-01
        11         1       -1.336341e+00
        12         1       -5.351782e-01
        13         1        4.443635e-01
        14         1       -1.269482e+00
        15         1        1.189385e+00
        16         1        7.405175e-01
        17         1        1.108915e+00
        18         1        6.301224e-02
        19         1       -6.167093e-01
        20         1        8.981662e-01
        21         1        1.353791e+00
        22         1       -9.340839e-01
        23         1       -1.452108e+00
        24         1       -9.527357e-01
        25         1       -4.354185e-01
        26         1       -6.391721e-01
        27         1       -2.155517e+00
        28         1        6.937329e-01
        29         1        1.243177e+00
        30         1       -1.610679e+00
        31         1        7.259507e-01
        32         1       -5.502172e-02
        33         1        8.844962e-01
        34         1        9.882871e-01
        35         1        5.374477e-02
        36         1       -5.069482e-01
        37         1        5.915971e-01
        38         1        1.639082e+00
        39         1       -1.001562e+00
        40         1        1.899120e-01
        41         1       -1.649141e-01
        42         1        3.810444e-01
        43         1        9.640502e-01
        44         1        9.596030e-01
        45         1        1.817765e-01
        46         1        8.400569e-01
        47         1       -6.364802e-01
        48         1        4.059085e-02
        49         1       -3.422317e-02
        50         1       -4.086632e-01
        51         1        3.587009e-01
        52         1        8.883798e-01
        53         1       -3.258500e-01
        54         1        4.002229e-01
        55         1       -1.097236e+00
        56         1       -5.820799e-01
         1         2        9.221438e-01
         2         2        2.428710e+00
         3         2        4.600180e-01
         4         2        2.295729e+00
         5         2       -1.093624e-01
         6         2       -5.708754e-01
         7         2       -1.007612e+00
         8         2        1.559518e+00
         9         2        2.509842e+00
        10         2        3.830439e-01
        11         2       -3.765997e-01
        12         2       -2.701084e-02
        13         2       -7.754325e-01
        14         2        1.804391e-01
        15         2       -1.484150e+00
        16         2       -1.573388e+00
        17         2       -2.979211e-01
        18         2        2.972062e+00
        19         2       -2.070245e-01
        20         2        1.331865e-01
        21         2        6.843025e-01
        22         2        5.398940e-01
        23         2        4.979094e-01
        24         2        1.120589e+00
        25         2       -1.921290e-01
        26         2       -3.953475e-01
        27         2        7.313119e-01
        28         2       -3.673263e-01
        29         2       -3.639204e-01
        30         2        9.147210e-01
        31         2        6.030062e-01
        32         2        1.667378e+00
        33         2       -3.934256e-01
        34         2        7.257973e-01
        35         2        1.899314e+00
        36         2        4.790791e-01
        37         2       -1.168262e-01
        38         2        8.820988e-01
        39         2        7.477621e-01
        40         2       -2.674725e+00
        41         2       -1.051023e+00
        42         2        9.156550e-02
        43         2        1.006901e+00
        44         2       -1.451276e+00
        45         2        4.940606e-01
        46         2       -4.768154e-01
        47         2        9.463845e-01
        48         2        2.641324e+00
        49         2       -5.248814e-01
        50         2       -1.365745e+00
        51         2       -1.149128e+00
        52         2       -1.970234e-01
        53         2       -9.799705e-01
        54         2       -8.397308e-01
        55         2        3.401872e-01
        56         2        1.660476e+00
         1         3       -1.225696e+00
         2         3       -2.474723e-01
         3         3       -4.460384e-01
         4         3       -1.598800e+00
         5         3        5.540936e-01
         6         3       -4.897350e-01
         7         3        9.262398e-02
         8         3       -6.105178e-01
         9         3       -2.716786e-01
        10         3        3.076954e+00
        11         3        9.517885e-01
        12         3       -1.456655e+00
        13         3       -1.323331e+00
        14         3       -6.581761e-01
        15         3        2.249545e+00
        16         3        1.636239e-01
        17         3       -1.317514e-01
        18         3        1.745054e+00
        19         3       -9.369456e-01
        20         3        6.896309e-01
        21         3        1.054354e+00
        22         3       -4.084218e-01
        23         3       -1.110529e+00
        24         3       -1.487838e+00
        25         3       -9.245871e-01
        26         3        1.204337e-01
        27         3        1.456778e+00
        28         3       -6.500292e-02
        29         3       -9.740737e-03
        30         3       -2.371103e+00
        31         3        3.932422e-01
        32         3       -8.411837e-01
        33         3       -2.667094e-01
        34         3       -2.857200e-01
        35         3       -7.651435e-01
        36         3       -6.960943e-01
        37         3        5.482543e-01
        38         3        1.182331e+00
        39         3        1.465765e+00
        40         3        2.972365e-01
        41         3        4.322339e-01
        42         3        2.180368e-01
        43         3        9.047496e-01
        44         3        7.271846e-01
        45         3       -1.093174e+00
        46         3        6.883071e-01
        47         3        1.245115e+00
        48         3       -4.949629e-01
        49         3        8.478411e-01
        50         3        1.971238e-01
        51         3       -4.049640e-01
        52         3       -2.213094e-01
        53         3        3.258128e-01
        54         3       -1.284343e+00
        55         3        4.377335e-01
        56         3       -7.796556e-02
         1         4       -8.498512e-02
         2         4       -4.922321e-01
         3         4       -8.484783e-01
         4         4        5.433036e-01
         5         4       -3.481187e-01
         6         4       -1.108781e+00
         7         4        7.689125e-01
         8         4       -5.150986e-01
         9         4       -4.026084e-01
        10         4        8.069862e-02
        11         4        1.617418e+00
        12         4        6.695219e-01
        13         4       -4.042585e-01
        14         4        2.080612e-01
        15         4       -7.817606e-01
        16         4       -8.710179e-02
        17         4        2.369174e+00
        18         4       -5.413087e-01
        19         4        1.088725e-01
        20         4        2.428892e+00
        21         4        2.513723e+00
        22         4       -2.492786e-01
        23         4       -4.455787e-01
        24         4       -1.089783e+00
        25         4        9.254353e-01
        26         4        5.275173e-01
        27         4       -1.009869e+00
        28         4        3.224428e-01
        29         4       -5.487508e-01
        30         4       -1.003601e+00
        31         4       -3.006403e-01
        32         4        1.407036e-01
        33         4        1.140518e+00
        34         4       -7.905839e-01
        35         4        5.395111e-01
        36         4       -2.788040e-02
        37         4        1.865323e+00
        38         4       -7.434034e-01
        39         4       -6.457365e-01
        40         4        1.815732e+00
        41         4       -1.233594e+00
        42         4       -6.455580e-01
        43         4        2.362196e+00
        44         4       -1.508731e+00
        45         4       -5.629191e-01
        46         4       -1.227485e+00
        47         4       -2.603692e-01
        48         4       -1.057002e+00
        49         4       -7.509453e-01
        50         4       -1.583980e+00
        51         4        2.035718e+00
        52         4        1.816629e+00
        53         4       -2.883604e-01
        54         4        1.738017e+00
        55         4        1.131269e+00
        56         4        6.007201e-01
         1         5        6.154282e-01
         2         5        2.382482e-01
         3         5        6.073880e-01
         4         5       -1.589872e+00
         5         5        1.788812e+00
         6         5       -2.064320e+00
         7         5        3.490893e-01
         8         5        6.947845e-01
         9         5        1.020685e+00
        10         5       -1.900122e+00
        11         5        9.468334e-01
        12         5       -6.356225e-01
        13         5       -9.524680e-01
        14         5        1.085418e+00
        15         5        6.568853e-01
        16         5       -7.613216e-01
        17         5       -1.574507e+00
        18         5        3.926471e-01
        19         5       -1.455105e-01
        20         5        2.304235e-01
        21         5       -5.494924e-01
        22         5       -1.094950e+00
        23         5       -1.091154e+00
        24         5       -4.931485e-01
        25         5        3.297714e-01
        26         5       -6.548912e-01
        27         5       -7.674945e-01
        28         5        1.654224e+00
        29         5        4.566813e-02
        30         5        4.503645e-01
        31         5       -1.530013e+00
        32         5        3.376145e-01
        33         5        3.254064e-01
        34         5       -1.629306e-02
        35         5        8.046133e-01
        36         5        8.461056e-01
        37         5        6.797145e-01
        38         5        9.250308e-01
        39         5       -2.408103e-01
        40         5       -2.470031e-02
        41         5        1.026107e+00
        42         5       -6.034697e-02
        43         5        4.865829e-01
        44         5        1.514424e+00
        45         5        1.970784e-01
        46         5        3.473133e-01
        47         5       -6.472291e-01
        48         5        9.016421e-01
        49         5       -9.199966e-01
        50         5       -1.544108e+00
        51         5       -5.427366e-02
        52         5        5.002995e-01
        53         5       -3.548678e-01
        54         5        1.841135e+00
        55         5        1.158644e-01
        56         5       -7.715482e-01
;

param theta:=
    1        1.261609e+00
    2        2.474928e-01
    3       -1.929518e+00
    4       -9.177899e-01
    5       -5.096371e-01
;
param X_true:=
    1        2.072302e+00
    2        1.212877e+00
    3       -3.581946e-01
    4        3.055580e+00
    5       -1.214670e+00
    6        1.444596e+00
    7       -7.007513e-01
    8        2.720197e+00
    9        1.953380e+00
   10       -4.529232e+00
   11       -5.582631e+00
   12        1.838227e+00
   13        3.778527e+00
   14       -1.031096e+00
   15       -2.824595e+00
   16        6.970650e-01
   17        2.075246e-01
   18       -2.255352e+00
   19        9.528056e-01
   20       -2.511203e+00
   21       -2.184107e+00
   22        5.300409e-01
   23        1.399062e+00
   24        3.197687e+00
   25        1.697099e-01
   26       -1.287003e+00
   27       -4.031314e+00
   28       -2.292552e-01
   29        1.977494e+00
   30        3.460997e+00
   31        1.362014e+00
   32        1.665130e+00
   33        3.205442e-01
   34        2.711657e+00
   35        1.109011e+00
   36        4.165061e-01
   37       -2.398798e+00
   38        2.157242e-01
   39       -3.191359e+00
   40       -2.649776e+00
   41       -6.929425e-01
   42        7.059267e-01
   43       -2.696256e+00
   44        6.123953e-02
   45        2.877110e+00
   46        5.632840e-01
   47       -2.402421e+00
   48        2.170554e+00
   49       -6.509308e-01
   50        1.006756e+00
   51       -8.911772e-01
   52       -4.232077e-01
   53       -8.367845e-01
   54        2.418156e-01
   55       -3.242020e+00
   56       -3.310907e-01
;
param X:=
    1        1.019824e+00
    2        1.212877e+00
    3       -1.042661e-01
    4        1.377863e+00
    5       -1.182277e+00
    6        1.444596e+00
    7        5.250815e-01
    8        1.392447e+00
    9        1.856131e-01
   10       -4.529232e+00
   11       -5.582631e+00
   12        6.652360e-01
   13        1.692090e+00
   14       -8.519616e-01
   15       -1.997362e-01
   16        8.022762e-01
   17        5.407492e-02
   18       -1.687547e+00
   19        2.651427e-01
   20       -8.440119e-01
   21       -1.001258e+00
   22       -3.303225e-02
   23        1.124183e-01
   24        3.197687e+00
   25       -9.155142e-01
   26       -6.746386e-01
   27       -4.031314e+00
   28        1.235769e+00
   29        1.923293e+00
   30        1.867658e+00
   31        3.910831e-01
   32        1.014325e+00
   33        3.337581e-01
   34        2.711657e+00
   35       -6.596022e-01
   36       -7.298978e-01
   37       -7.671646e-01
   38       -2.221651e-02
   39       -3.191359e+00
   40       -1.433775e+00
   41       -2.588478e-01
   42        1.257725e+00
   43       -1.226298e+00
   44       -7.327243e-02
   45        2.877110e+00
   46        7.608470e-01
   47       -1.364480e+00
   48        2.510443e-01
   49       -4.855607e-02
   50        1.006756e+00
   51        1.393544e-01
   52       -1.236210e+00
   53       -1.476105e-01
   54        1.531635e+00
   55       -3.242020e+00
   56       -3.310907e-01
;
param outliervec:=
    1    1
    2    0
    3    1
    4    1
    5    1
    6    0
    7    1
    8    1
    9    1
   10    0
   11    0
   12    1
   13    1
   14    1
   15    1
   16    1
   17    1
   18    1
   19    1
   20    1
   21    1
   22    1
   23    1
   24    0
   25    1
   26    1
   27    0
   28    1
   29    1
   30    1
   31    1
   32    1
   33    1
   34    0
   35    1
   36    1
   37    1
   38    1
   39    0
   40    1
   41    1
   42    1
   43    1
   44    1
   45    0
   46    1
   47    1
   48    1
   49    1
   50    0
   51    1
   52    1
   53    1
   54    1
   55    0
   56    0
; 
param greedy_time :=         5.099019e-01
;